40
0 1 0.52 0.23
0 2 0.66 0.18
0 3 0.58 0.12
0 4 0.59 0.27
0 5 0.46 0.16
0 6 0.54 0.22
0 7 0.52 0.2
0 8 0.66 0.04
0 9 0.36 0.2
0 10 0.38 0.14
0 11 0.58 0.26
0 12 0.51 0.2
0 13 0.57 0.23
0 14 0.72 0.21
0 15 0.55 0.1
0 16 0.36 0.19
0 17 0.52 0.1
0 18 0.46 0.24
0 19 0.6 0.08
0 20 0.66 0.22
0 21 0.66 0.24
0 22 0.54 0.18
0 23 0.65 0.24
0 24 0.5 0.02
0 25 0.62 0.18
0 26 0.79 0.14
0 27 0.59 0.19
0 28 0.28 0.14
0 29 0.62 0.16
0 30 0.34 0.27
0 31 0.38 0.23
0 32 0.5 0.14
0 33 0.49 0.24
0 34 0.5 0.12
0 35 0.57 0.13
0 36 0.72 0.2
0 37 0.13 0.08
0 38 0.46 0.12
0 39 0.38 0.2
1 2 0.43 0.06
1 3 0.5 0.18
1 4 0.54 0.2
1 5 0.34 0.22
1 6 0.69 0.21
1 7 0.32 0.12
1 8 0.69 0.2
1 9 0.45 0.23
1 10 0.59 0.2
1 11 0.48 0.29
1 12 0.75 0.28
1 13 0.53 0.3
1 14 0.64 0.16
1 15 0.25 0.13
1 16 0.5 0.26
1 17 0.66 0.14
1 18 0.7 0.3
1 19 0.44 0.28
1 20 0.49 0.24
1 21 0.56 0.17
1 22 0.58 0.26
1 23 0.13 0.1
1 24 0.4 0.21
1 25 0.63 0.26
1 26 0.66 0.16
1 27 0.22 0.04
1 28 0.5 0.33
1 29 0.29 0.18
1 30 0.58 0.2
1 31 0.62 0.24
1 32 0.62 0.19
1 33 0.56 0.19
1 34 0.63 0.28
1 35 0.5 0.19
1 36 0.6 0.24
1 37 0.53 0.28
1 38 0.59 0.18
1 39 0.58 0.18
2 3 0.46 0.12
2 4 0.52 0.19
2 5 0.5 0.16
2 6 0.72 0.19
2 7 0.75 0.1
2 8 0.72 0.14
2 9 0.63 0.21
2 10 0.65 0.17
2 11 0.62 0.28
2 12 0.76 0.22
2 13 0.52 0.28
2 14 0.48 0.1
2 15 0.67 0.1
2 16 0.44 0.24
2 17 0.54 0.08
2 18 0.69 0.28
2 19 0.64 0.26
2 20 0.66 0.22
2 21 0.76 0.16
2 22 0.64 0.2
2 23 0.3 0.16
2 24 0.52 0.18
2 25 0.78 0.21
2 26 0.64 0.14
2 27 0.65 0.02
2 28 0.6 0.28
2 29 0.46 0.24
2 30 0.5 0.18
2 31 0.37 0.18
2 32 0.44 0.24
2 33 0.54 0.17
2 34 0.4 0.22
2 35 0.34 0.13
2 36 0.62 0.22
2 37 0.54 0.26
2 38 0.66 0.16
2 39 0.59 0.12
3 4 0.52 0.15
3 5 0.63 0.04
3 6 0.64 0.25
3 7 0.66 0.08
3 8 0.57 0.16
3 9 0.38 0.28
3 10 0.58 0.13
3 11 0.72 0.22
3 12 0.3 0.18
3 13 0.44 0.16
3 14 0.52 0.09
3 15 0.57 0.2
3 16 0.5 0.23
3 17 0.66 0.2
3 18 0.54 0.26
3 19 0.81 0.2
3 20 0.7 0.2
3 21 0.74 0.12
3 22 0.18 0.08
3 23 0.61 0.18
3 24 0.38 0.14
3 25 0.4 0.26
3 26 0.66 0.2
3 27 0.61 0.14
3 28 0.44 0.16
3 29 0.62 0.22
3 30 0.57 0.25
3 31 0.64 0.17
3 32 0.64 0.21
3 33 0.64 0.23
3 34 0.52 0.24
3 35 0.47 0.01
3 36 0.54 0.2
3 37 0.45 0.2
3 38 0.71 0.2
3 39 0.2 0.08
4 5 0.48 0.19
4 6 0.62 0.21
4 7 0.56 0.23
4 8 0.68 0.27
4 9 0.62 0.29
4 10 0.6 0.23
4 11 0.36 0.15
4 12 0.62 0.27
4 13 0.52 0.17
4 14 0.68 0.24
4 15 0.73 0.19
4 16 0.38 0.3
4 17 0.46 0.21
4 18 0.68 0.25
4 19 0.62 0.27
4 20 0.74 0.29
4 21 0.42 0.03
4 22 0.34 0.22
4 23 0.67 0.3
4 24 0.55 0.27
4 25 0.59 0.33
4 26 0.49 0.2
4 27 0.66 0.21
4 28 0.6 0.3
4 29 0.64 0.36
4 30 0.72 0.19
4 31 0.72 0.32
4 32 0.64 0.32
4 33 0.5 0.2
4 34 0.44 0.34
4 35 0.64 0.16
4 36 0.64 0.3
4 37 0.46 0.27
4 38 0.63 0.22
4 39 0.56 0.07
5 6 0.67 0.26
5 7 0.53 0.12
5 8 0.62 0.2
5 9 0.66 0.32
5 10 0.46 0.17
5 11 0.62 0.24
5 12 0.54 0.22
5 13 0.66 0.18
5 14 0.38 0.11
5 15 0.59 0.23
5 16 0.66 0.26
5 17 0.84 0.24
5 18 0.69 0.28
5 19 0.52 0.24
5 20 0.83 0.24
5 21 0.66 0.16
5 22 0.53 0.12
5 23 0.47 0.14
5 24 0.64 0.18
5 25 0.52 0.3
5 26 0.7 0.16
5 27 0.43 0.18
5 28 0.69 0.2
5 29 0.63 0.22
5 30 0.24 0.22
5 31 0.58 0.19
5 32 0.4 0.23
5 33 0.37 0.27
5 34 0.48 0.27
5 35 0.16 0.03
5 36 0.34 0.22
5 37 0.59 0.24
5 38 0.5 0.16
5 39 0.61 0.12
6 7 0.6 0.2
6 8 0.55 0.18
6 9 0.68 0.36
6 10 0.46 0.12
6 11 0.53 0.22
6 12 0.64 0.26
6 13 0.6 0.32
6 14 0.73 0.22
6 15 0.77 0.17
6 16 0.53 0.22
6 17 0.73 0.24
6 18 0.33 0.24
6 19 0.69 0.3
6 20 0.68 0.2
6 21 0.46 0.18
6 22 0.69 0.3
6 23 0.57 0.24
6 24 0.88 0.24
6 25 0.54 0.12
6 26 0.46 0.12
6 27 0.7 0.17
6 28 0.7 0.22
6 29 0.61 0.24
6 30 0.76 0.29
6 31 0.65 0.35
6 32 0.6 0.28
6 33 0.7 0.02
6 34 0.56 0.26
6 35 0.6 0.26
6 36 0.66 0.2
6 37 0.67 0.3
6 38 0.28 0.1
6 39 0.79 0.22
7 8 0.63 0.24
7 9 0.33 0.27
7 10 0.36 0.2
7 11 0.58 0.26
7 12 0.52 0.18
7 13 0.56 0.24
7 14 0.34 0.17
7 15 0.36 0.17
7 16 0.46 0.27
7 17 0.61 0.18
7 18 0.46 0.18
7 19 0.58 0.28
7 20 0.6 0.12
7 21 0.55 0.2
7 22 0.58 0.16
7 23 0.45 0.22
7 24 0.28 0.22
7 25 0.58 0.24
7 26 0.34 0.2
7 27 0.1 0.08
7 28 0.5 0.22
7 29 0.33 0.15
7 30 0.72 0.28
7 31 0.48 0.25
7 32 0.75 0.27
7 33 0.44 0.18
7 34 0.6 0.24
7 35 0.56 0.09
7 36 0.42 0.12
7 37 0.65 0.28
7 38 0.5 0.22
7 39 0.64 0.16
8 9 0.3 0.24
8 10 0.54 0.18
8 11 0.61 0.3
8 12 0.55 0.19
8 13 0.52 0.27
8 14 0.4 0.24
8 15 0.56 0.14
8 16 0.64 0.18
8 17 0.64 0.06
8 18 0.22 0.2
8 19 0.69 0.12
8 20 0.46 0.26
8 21 0.62 0.24
8 22 0.39 0.14
8 23 0.56 0.26
8 24 0.7 0.06
8 25 0.44 0.22
8 26 0.75 0.1
8 27 0.53 0.16
8 28 0.65 0.18
8 29 0.62 0.2
8 30 0.7 0.23
8 31 0.54 0.19
8 32 0.67 0.1
8 33 0.72 0.2
8 34 0.46 0.08
8 35 0.62 0.17
8 36 0.56 0.24
8 37 0.54 0.12
8 38 0.41 0.08
8 39 0.42 0.24
9 10 0.44 0.33
9 11 0.77 0.32
9 12 0.64 0.34
9 13 0.66 0.2
9 14 0.59 0.31
9 15 0.62 0.28
9 16 0.56 0.22
9 17 0.64 0.26
9 18 0.52 0.37
9 19 0.71 0.14
9 20 0.68 0.39
9 21 0.56 0.26
9 22 0.46 0.36
9 23 0.5 0.21
9 24 0.4 0.22
9 25 0.71 0.37
9 26 0.67 0.3
9 27 0.23 0.19
9 28 0.38 0.29
9 29 0.66 0.29
9 30 0.59 0.36
9 31 0.52 0.39
9 32 0.75 0.32
9 33 0.57 0.34
9 34 0.73 0.28
9 35 0.74 0.29
9 36 0.58 0.39
9 37 0.49 0.14
9 38 0.4 0.32
9 39 0.43 0.3
10 11 0.34 0.22
10 12 0.78 0.23
10 13 0.74 0.24
10 14 0.66 0.22
10 15 0.36 0.07
10 16 0.74 0.26
10 17 0.46 0.13
10 18 0.69 0.28
10 19 0.47 0.22
10 20 0.6 0.08
10 21 0.67 0.2
10 22 0.76 0.21
10 23 0.54 0.12
10 24 0.53 0.15
10 25 0.81 0.24
10 26 0.7 0.16
10 27 0.46 0.16
10 28 0.6 0.27
10 29 0.66 0.2
10 30 0.53 0.34
10 31 0.37 0.23
10 32 0.52 0.28
10 33 0.53 0.1
10 34 0.63 0.26
10 35 0.46 0.14
10 36 0.72 0.29
10 37 0.35 0.22
10 38 0.64 0.14
10 39 0.42 0.16
11 12 0.51 0.16
11 13 0.5 0.26
11 14 0.68 0.29
11 15 0.7 0.28
11 16 0.74 0.23
11 17 0.31 0.28
11 18 0.39 0.1
11 19 0.68 0.18
11 20 0.5 0.14
11 21 0.78 0.12
11 22 0.54 0.24
11 23 0.52 0.34
11 24 0.53 0.27
11 25 0.76 0.26
11 26 0.44 0.26
11 27 0.68 0.3
11 28 0.64 0.16
11 29 0.56 0.34
11 30 0.48 0.22
11 31 0.68 0.26
11 32 0.62 0.25
11 33 0.67 0.24
11 34 0.49 0.32
11 35 0.46 0.21
11 36 0.53 0.16
11 37 0.68 0.18
11 38 0.58 0.24
11 39 0.76 0.16
12 13 0.62 0.32
12 14 0.44 0.17
12 15 0.52 0.16
12 16 0.54 0.23
12 17 0.48 0.22
12 18 0.69 0.12
12 19 0.78 0.28
12 20 0.45 0.3
12 21 0.69 0.24
12 22 0.48 0.1
12 23 0.62 0.32
12 24 0.68 0.18
12 25 0.46 0.26
12 26 0.76 0.25
12 27 0.62 0.24
12 28 0.26 0.16
12 29 0.74 0.24
12 30 0.66 0.22
12 31 0.49 0.32
12 32 0.62 0.09
12 33 0.68 0.28
12 34 0.71 0.27
12 35 0.6 0.19
12 36 0.58 0.06
12 37 0.49 0.28
12 38 0.52 0.23
12 39 0.5 0.2
13 14 0.53 0.23
13 15 0.52 0.3
13 16 0.7 0.22
13 17 0.66 0.32
13 18 0.4 0.2
13 19 0.68 0.15
13 20 0.58 0.32
13 21 0.3 0.14
13 22 0.38 0.22
13 23 0.4 0.29
13 24 0.56 0.25
13 25 0.68 0.29
13 26 0.74 0.32
13 27 0.54 0.26
13 28 0.62 0.29
13 29 0.56 0.26
13 30 0.66 0.3
13 31 0.44 0.23
13 32 0.82 0.35
13 33 0.8 0.34
13 34 0.7 0.29
13 35 0.68 0.15
13 36 0.62 0.26
13 37 0.44 0.15
13 38 0.59 0.34
13 39 0.4 0.18
14 15 0.47 0.2
14 16 0.66 0.26
14 17 0.61 0.18
14 18 0.6 0.29
14 19 0.63 0.29
14 20 0.66 0.29
14 21 0.67 0.21
14 22 0.34 0.17
14 23 0.64 0.2
14 24 0.62 0.23
14 25 0.35 0.27
14 26 0.68 0.24
14 27 0.44 0.12
14 28 0.45 0.25
14 29 0.48 0.28
14 30 0.38 0.16
14 31 0.55 0.24
14 32 0.48 0.26
14 33 0.48 0.2
14 34 0.27 0.16
14 35 0.22 0.08
14 36 0.37 0.23
14 37 0.64 0.29
14 38 0.56 0.26
14 39 0.46 0.17
15 16 0.7 0.19
15 17 0.65 0.18
15 18 0.64 0.21
15 19 0.52 0.18
15 20 0.24 0.15
15 21 0.31 0.16
15 22 0.68 0.26
15 23 0.38 0.19
15 24 0.64 0.08
15 25 0.58 0.24
15 26 0.7 0.09
15 27 0.46 0.09
15 28 0.54 0.2
15 29 0.5 0.22
15 30 0.55 0.28
15 31 0.49 0.28
15 32 0.39 0.24
15 33 0.59 0.17
15 34 0.71 0.22
15 35 0.65 0.21
15 36 0.63 0.22
15 37 0.42 0.18
15 38 0.52 0.07
15 39 0.42 0.2
16 17 0.84 0.24
16 18 0.44 0.26
16 19 0.54 0.24
16 20 0.62 0.33
16 21 0.8 0.32
16 22 0.32 0.15
16 23 0.42 0.2
16 24 0.48 0.19
16 25 0.53 0.17
16 26 0.69 0.1
16 27 0.56 0.22
16 28 0.51 0.07
16 29 0.26 0.12
16 30 0.5 0.34
16 31 0.74 0.21
16 32 0.54 0.28
16 33 0.38 0.24
16 34 0.62 0.1
16 35 0.59 0.24
16 36 0.57 0.29
16 37 0.49 0.24
16 38 0.25 0.12
16 39 0.36 0.29
17 18 0.7 0.26
17 19 0.92 0.18
17 20 0.41 0.21
17 21 0.48 0.18
17 22 0.63 0.12
17 23 0.53 0.24
17 24 0.84 0.12
17 25 0.53 0.28
17 26 0.51 0.16
17 27 0.51 0.1
17 28 0.59 0.2
17 29 0.69 0.22
17 30 0.64 0.26
17 31 0.6 0.25
17 32 0.48 0.16
17 33 0.68 0.23
17 34 0.5 0.14
17 35 0.74 0.21
17 36 0.5 0.28
17 37 0.59 0.18
17 38 0.69 0.14
17 39 0.6 0.2
18 19 0.6 0.28
18 20 0.4 0.22
18 21 0.51 0.22
18 22 0.36 0.22
18 23 0.58 0.32
18 24 0.63 0.24
18 25 0.38 0.28
18 26 0.59 0.16
18 27 0.56 0.26
18 28 0.43 0.26
18 29 0.52 0.24
18 30 0.62 0.2
18 31 0.32 0.24
18 32 0.52 0.21
18 33 0.57 0.26
18 34 0.6 0.28
18 35 0.53 0.25
18 36 0.57 0.06
18 37 0.59 0.28
18 38 0.19 0.14
18 39 0.64 0.26
19 20 0.55 0.28
19 21 0.51 0.24
19 22 0.8 0.26
19 23 0.57 0.27
19 24 0.58 0.1
19 25 0.8 0.26
19 26 0.69 0.22
19 27 0.48 0.27
19 28 0.59 0.2
19 29 0.54 0.19
19 30 0.7 0.22
19 31 0.36 0.25
19 32 0.54 0.22
19 33 0.58 0.32
19 34 0.46 0.14
19 35 0.68 0.21
19 36 0.76 0.28
19 37 0.58 0.0
19 38 0.41 0.2
19 39 0.7 0.2
20 21 0.42 0.26
20 22 0.58 0.28
20 23 0.62 0.2
20 24 0.58 0.23
20 25 0.44 0.24
20 26 0.76 0.24
20 27 0.5 0.2
20 28 0.38 0.26
20 29 0.74 0.27
20 30 0.64 0.36
20 31 0.42 0.24
20 32 0.63 0.36
20 33 0.48 0.18
20 34 0.58 0.34
20 35 0.87 0.21
20 36 0.52 0.24
20 37 0.56 0.28
20 38 0.59 0.22
20 39 0.5 0.24
21 22 0.6 0.2
21 23 0.47 0.27
21 24 0.7 0.24
21 25 0.78 0.3
21 26 0.63 0.23
21 27 0.5 0.18
21 28 0.66 0.28
21 29 0.63 0.34
21 30 0.69 0.16
21 31 0.68 0.29
21 32 0.7 0.29
21 33 0.84 0.2
21 34 0.4 0.32
21 35 0.5 0.13
21 36 0.48 0.27
21 37 0.62 0.24
21 38 0.7 0.23
21 39 0.7 0.04
22 23 0.71 0.22
22 24 0.56 0.2
22 25 0.36 0.18
22 26 0.59 0.24
22 27 0.48 0.22
22 28 0.26 0.08
22 29 0.58 0.14
22 30 0.64 0.32
22 31 0.46 0.24
22 32 0.72 0.19
22 33 0.58 0.31
22 34 0.5 0.22
22 35 0.56 0.09
22 36 0.51 0.16
22 37 0.63 0.26
22 38 0.55 0.22
22 39 0.38 0.16
23 24 0.46 0.22
23 25 0.5 0.16
23 26 0.55 0.16
23 27 0.35 0.14
23 28 0.46 0.26
23 29 0.16 0.08
23 30 0.64 0.22
23 31 0.67 0.33
23 32 0.74 0.29
23 33 0.69 0.22
23 34 0.7 0.3
23 35 0.6 0.17
23 36 0.47 0.26
23 37 0.66 0.27
23 38 0.46 0.18
23 39 0.65 0.26
24 25 0.5 0.16
24 26 0.6 0.16
24 27 0.38 0.17
24 28 0.55 0.12
24 29 0.61 0.14
24 30 0.71 0.29
24 31 0.76 0.25
24 32 0.71 0.16
24 33 0.46 0.25
24 34 0.58 0.14
24 35 0.64 0.15
24 36 0.64 0.18
24 37 0.46 0.1
24 38 0.73 0.14
24 39 0.52 0.22
25 26 0.62 0.22
25 27 0.48 0.23
25 28 0.34 0.1
25 29 0.54 0.12
25 30 0.28 0.27
25 31 0.44 0.26
25 32 0.36 0.24
25 33 0.41 0.14
25 34 0.38 0.27
25 35 0.52 0.27
25 36 0.68 0.3
25 37 0.7 0.26
25 38 0.46 0.2
25 39 0.6 0.33
26 27 0.44 0.12
26 28 0.67 0.17
26 29 0.43 0.22
26 30 0.72 0.32
26 31 0.44 0.29
26 32 0.56 0.2
26 33 0.62 0.14
26 34 0.62 0.18
26 35 0.54 0.19
26 36 0.72 0.22
26 37 0.66 0.22
26 38 0.5 0.02
26 39 0.46 0.26
27 28 0.48 0.29
27 29 0.43 0.22
27 30 0.67 0.2
27 31 0.4 0.2
27 32 0.71 0.23
27 33 0.34 0.15
27 34 0.5 0.24
27 35 0.59 0.15
27 36 0.52 0.2
27 37 0.62 0.27
27 38 0.44 0.14
27 39 0.64 0.14
28 29 0.48 0.19
28 30 0.57 0.32
28 31 0.23 0.16
28 32 0.7 0.25
28 33 0.67 0.24
28 34 0.51 0.17
28 35 0.53 0.17
28 36 0.77 0.22
28 37 0.41 0.2
28 38 0.62 0.19
28 39 0.61 0.24
29 30 0.48 0.3
29 31 0.58 0.33
29 32 0.64 0.28
29 33 0.64 0.26
29 34 0.61 0.22
29 35 0.49 0.23
29 36 0.31 0.18
29 37 0.65 0.19
29 38 0.33 0.24
29 39 0.62 0.3
30 31 0.34 0.16
30 32 0.16 0.13
30 33 0.52 0.27
30 34 0.46 0.27
30 35 0.4 0.24
30 36 0.44 0.16
30 37 0.42 0.22
30 38 0.63 0.31
30 39 0.37 0.2
31 32 0.5 0.29
31 33 0.44 0.33
31 34 0.28 0.11
31 35 0.58 0.16
31 36 0.58 0.3
31 37 0.5 0.25
31 38 0.51 0.27
31 39 0.66 0.25
32 33 0.65 0.3
32 34 0.56 0.18
32 35 0.26 0.2
32 36 0.6 0.15
32 37 0.58 0.22
32 38 0.47 0.18
32 39 0.53 0.29
33 34 0.72 0.28
33 35 0.53 0.24
33 36 0.71 0.22
33 37 0.36 0.32
33 38 0.63 0.12
33 39 0.61 0.24
34 35 0.49 0.24
34 36 0.3 0.26
34 37 0.63 0.14
34 38 0.62 0.16
34 39 0.64 0.32
35 36 0.36 0.19
35 37 0.44 0.21
35 38 0.34 0.19
35 39 0.64 0.09
36 37 0.59 0.28
36 38 0.38 0.2
36 39 0.34 0.24
37 38 0.4 0.2
37 39 0.25 0.2
38 39 0.51 0.27
